NAME : 0000
COMMENT : Serious-senpai's random testing stuff
TYPE : TSP
DIMENSION: 10
EDGE_WEIGHT_TYPE : EUC_2D
NODE_COORD_SECTION
  1 288 149
  2 288 129
  3 270 133
  4 256 141
  5 256 157
  6 246 157
  7 236 169
  8 228 169
  9 228 161
 10 220 169
